c turning on binary mode checking
c parsing input formula with 202048 variables and 780980 clauses
c finished parsing, read 16625219 bytes from proof file
c detected empty clause; start verification via backward checking
c 10683 of 780980 clauses in core                            
c 13867 of 452247 lemmas in core using 77786 resolution steps
c 0 RAT lemmas in core; 708 redundant literals in core lemmas
s VERIFIED
c verification time: 2.148 seconds
